64 1000
66 411
27 124
54 48
74 302
78 467
88 470
6 158
99 542
13 949
25 558
31 192
58 774
36 679
9 175
89 330
41 472
96 255
3 120
22 550
70 929
51 201
59 10
52 157
58 310
68 217
9 436
62 0
79 320
95 998
80 940
12 585
92 773
93 9
11 848
29 316
69 281
91 881
90 228
91 196
13 849
85 759
11 175
47 199
98 142
83 694
79 230
56 495
56 824
72 249
17 768
1 801
34 786
67 45
93 425
74 258
69 6
33 911
10 481
23 380
75 660
43 706
2 706
82 599
0 410
